c Random generated cnf formula, satisfiable: true
p cnf 10 50
-1 -7 -8 0
4 9 -8 0
-6 -4 10 0
-7 -9 4 0
-7 9 6 0
9 7 6 0
1 -8 -4 0
4 -5 1 0
-7 5 -4 0
1 4 9 0
-3 5 -4 0
-5 -10 8 0
9 6 8 0
3 -8 -10 0
-5 1 -3 0
-10 1 2 0
-4 2 7 0
7 -1 -6 0
-4 10 -5 0
-10 2 5 0
1 5 -3 0
-6 7 -8 0
2 -3 1 0
-3 10 5 0
10 3 5 0
-8 -7 -2 0
5 -7 -3 0
-2 7 5 0
9 -4 -6 0
9 -3 2 0
-7 -2 -9 0
-2 3 5 0
3 -1 5 0
-9 -8 -10 0
-8 -6 1 0
-8 -9 -10 0
-10 4 -3 0
-10 4 9 0
5 -4 -8 0
10 -3 -5 0
1 8 4 0
5 3 10 0
-10 -6 -8 0
-7 3 -9 0
-1 -8 -4 0
-10 1 -9 0
-8 -9 -4 0
6 8 -5 0
-8 -9 -4 0
-9 2 -4 0
